N = 16;
M = 36;
Edge_Start = [1, 1, 2, 3, 3, 4, 5, 7, 7, 8, 9, 9, 10, 11, 12, 13, 14, 15, 2, 6, 3, 4, 8, 5, 10, 8, 12, 9, 10, 14, 11, 16, 13, 14, 15, 16];
Edge_End = [2, 6, 3, 4, 8, 5, 10, 8, 12, 9, 10, 14, 11, 16, 13, 14, 15, 16, 1, 1, 2, 3, 3, 4, 5, 7, 7, 8, 9, 9, 10, 11, 12, 13, 14, 15];
L = [14, 16, 11, 8, 18, 4, 16, 16, 7, 19, 12, 19, 15, 16, 16, 3, 17, 2, 14, 16, 11, 8, 18, 4, 16, 16, 7, 19, 12, 19, 15, 16, 16, 3, 17, 2];
T = [24, 13, 7, 6, 13, 1, 19, 18, 1, 6, 10, 20, 10, 17, 22, 4, 11, 8, 24, 13, 7, 6, 13, 1, 19, 18, 1, 6, 10, 20, 10, 17, 22, 4, 11, 8];
Lower_Bound = [0, 24, 31, 37, 38, 13, 62, 44, 50, 57, 67, 63, 74, 70, 81, 84];
Upper_Bound = [0, 24, 31, 37, 38, 13, 62, 44, 50, 57, 67, 63, 74, 70, 81, 84];
Start = 1;
End = 16;
Time = 84;
